NAME : A-n100-m2-Q200          
COMMENT : (Christophides and Eilon, Min no of trucks: 5 Optimal value: 521)
TYPE : MDVRP          
NODES : 100          
DEPOTS : 2          
CAPACITY : 200          
EDGE_WEIGHT_TYPE : EUC_2D          
NODE_COORD_SECTION           
1 41 49          
2 35 17          
3 55 45          
4 55 20          
5 15 30          
6 25 30          
7 20 50          
8 10 43          
9 55 60          
10 30 60          
11 20 65          
12 50 35          
13 30 25          
14 15 10          
15 30 5          
16 10 20          
17 5 30          
18 20 40          
19 15 60          
20 45 65          
21 45 20          
22 45 10          
23 55 5          
24 65 35          
25 65 20          
26 45 30          
27 35 40          
28 41 37          
29 64 42          
30 40 60          
31 31 52          
32 35 69          
33 53 52          
34 65 55          
35 63 65          
36 2 60          
37 20 20          
38 5 5          
39 60 12          
40 40 25          
41 42 7          
42 24 12          
43 23 3          
44 11 14          
45 6 38          
46 2 48          
47 8 56          
48 13 52          
49 6 68          
50 47 47          
51 49 58          
52 27 43          
53 37 31          
54 57 29          
55 63 23          
56 53 12          
57 32 12          
58 36 26          
59 21 24          
60 17 34          
61 12 24          
62 24 58          
63 27 69          
64 15 77          
65 62 77          
66 49 73          
67 67 5          
68 56 39          
69 37 47          
70 37 56          
71 57 68          
72 47 16          
73 44 17          
74 46 13          
75 49 11          
76 49 42          
77 53 43          
78 61 52          
79 57 48          
80 56 37          
81 55 54          
82 15 47          
83 14 37          
84 11 31          
85 16 22          
86 4 18          
87 28 18          
88 26 52          
89 26 35          
90 31 67          
91 15 19          
92 22 22          
93 18 24          
94 26 27          
95 25 24          
96 22 27          
97 25 21          
98 19 21          
99 20 26          
100 18 18          
DEMAND_SECTION            
1 10           
2 7           
3 13           
4 19           
5 26           
6 3           
7 5           
8 9           
9 16           
10 16           
11 12           
12 19           
13 23           
14 20           
15 8           
16 19           
17 2           
18 12           
19 17           
20 9           
21 11           
22 18           
23 29           
24 3           
25 6           
26 17           
27 16           
28 16           
29 9           
30 21           
31 27           
32 23           
33 11           
34 14           
35 8           
36 5           
37 8           
38 16           
39 31           
40 9           
41 5           
42 5           
43 7           
44 18           
45 16           
46 1           
47 27           
48 36           
49 30           
50 13           
51 10           
52 9           
53 14           
54 18           
55 2           
56 6           
57 7           
58 18           
59 28           
60 3           
61 13           
62 19           
63 10           
64 9           
65 20           
66 25           
67 25           
68 36           
69 6           
70 5           
71 15           
72 25           
73 9           
74 8           
75 18           
76 13           
77 14           
78 3           
79 23           
80 6           
81 26           
82 16           
83 11           
84 7           
85 41           
86 35           
87 26           
88 9           
89 15           
90 3           
91 1           
92 2           
93 22           
94 27           
95 20           
96 11           
97 12           
98 10           
99 9           
100 17           
DEPOT_SECTION            
101 35 20          
102 35 50          
EOF            
